mixintcount/benchmarks/random_v2l/5_5_11.smt2
(set-logic QF_LIA)
(set-info :ran/ran2.smt2)
(set-info :smt-lib-version 2.0)
(declare-fun x1 () Int)
(declare-fun x2 () Int)
(declare-fun x3 () Int)
(declare-fun x4 () Int)
(declare-fun x5 () Int)
(assert (<= (+ (* (- 9) x1) (* 3 x2) (* 3 x3) (* (- 5) x4) (* 9 x5) ) 1))
(assert (<= (+ (* 1 x1) (* (- 1) x2) (* (- 4) x3) (* (- 8) x4) (* (- 6) x5) ) (- 5)))
(assert (<= (+ (* (- 10) x1) (* (- 7) x2) (* 1 x3) (* 7 x4) (* (- 6) x5) ) 2))
(assert (<= (+ (* (- 7) x1) (* (- 5) x2) (* 9 x3) (* 6 x4) (* 6 x5) ) (- 9)))
(assert (<= (+ (* (- 1) x1) (* (- 9) x2) (* (- 6) x3) (* 10 x4) (* 5 x5) ) 3))
(assert (<= (+ (* (- 6) x1) (* 4 x2) (* (- 7) x3) (* 7 x4) (* 10 x5) ) 11))
(assert (<= (+ (* 5 x1) (* (- 2) x2) (* (- 2) x3) (* (- 9) x4) (* 0 x5) ) (- 2)))
(assert (<= (+ (* (- 10) x1) (* 0 x2) (* 6 x3) (* 2 x4) (* (- 5) x5) ) (- 6)))
(assert (<= (+ (* 1 x1) (* (- 4) x2) (* (- 7) x3) (* (- 1) x4) (* (- 9) x5) ) (- 10)))
(assert (<= (+ (* (- 6) x1) (* 0 x2) (* 7 x3) (* (- 2) x4) (* (- 3) x5) ) (- 7)))
(assert (<= (+ (* 1 x1) (* 0 x2) (* 0 x3) (* 0 x4) (* 0 x5) ) 11))
(assert (<= (+ (* (- 1) x1) (* 0 x2) (* 0 x3) (* 0 x4) (* 0 x5) ) 11))
(assert (<= (+ (* 0 x1) (* 1 x2) (* 0 x3) (* 0 x4) (* 0 x5) ) 11))
(assert (<= (+ (* 0 x1) (* (- 1) x2) (* 0 x3) (* 0 x4) (* 0 x5) ) 11))
(assert (<= (+ (* 0 x1) (* 0 x2) (* 1 x3) (* 0 x4) (* 0 x5) ) 11))
(assert (<= (+ (* 0 x1) (* 0 x2) (* (- 1) x3) (* 0 x4) (* 0 x5) ) 11))
(assert (<= (+ (* 0 x1) (* 0 x2) (* 0 x3) (* 1 x4) (* 0 x5) ) 11))
(assert (<= (+ (* 0 x1) (* 0 x2) (* 0 x3) (* (- 1) x4) (* 0 x5) ) 11))
(assert (<= (+ (* 0 x1) (* 0 x2) (* 0 x3) (* 0 x4) (* 1 x5) ) 11))
(assert (<= (+ (* 0 x1) (* 0 x2) (* 0 x3) (* 0 x4) (* (- 1) x5) ) 11))
