mixintcount/benchmarks/random_v2l/5_5_11.in
20 7
#	x1	x2	x3	x4	x5;		0 = Real; 1 = Integer
	1	1	1	1	1
1	-9	3	3	-5	9	1
1	1	-1	-4	-8	-6	-5
1	-10	-7	1	7	-6	2
1	-7	-5	9	6	6	-9
1	-1	-9	-6	10	5	3
1	-6	4	-7	7	10	11
1	5	-2	-2	-9	0	-2
1	-10	0	6	2	-5	-6
1	1	-4	-7	-1	-9	-10
1	-6	0	7	-2	-3	-7
1	1	0	0	0	0	11
1	-1	0	0	0	0	11
1	0	1	0	0	0	11
1	0	-1	0	0	0	11
1	0	0	1	0	0	11
1	0	0	-1	0	0	11
1	0	0	0	1	0	11
1	0	0	0	-1	0	11
1	0	0	0	0	1	11
1	0	0	0	0	-1	11
